;--------------------------------------------------------------------------
; Benchmark created with Zazu
; Benchmark: 		eucliddiv_norm_inv2_2xlen3
; Created:   		2022-01-11 18:12
; Generator of the ideal: 
; 		 -y00 + y
; 		 r - r00 - q00*y00 + q*y00
; Testing invariant: q^3*r^3*y^4*y00 - q^5*r^3*y*y00 - r^2*r00*y^3 - q^3*r^4*y^3 + q^2*r^5*y^2 + q^5*r^5*y^3*y00 + q^2*q00*r*y^2*y00 - q00*r^2*y^3*y00 - q^2*r^4*r00*y^2 + q^3*r^3*r00*y^3 - q^5*q00*r^2*y^2*y00 - q^2*q00*r^4*y^2*y00 - q^3*r*y^2*y00 + q^5*r^4*r00*y^4 - q^4*r^5*r00*y^3 + q^3*q00*r^3*y^3*y00 + q^4*r^3*r00*y - q^4*r^3*y^3*y00 - q^4*q00*r^5*y^3*y00 - q^4*r^4*y - q^6*r^4*y^4*y00 - q^2*r^2*y^2 - q^5*r^2*r00*y^2 + q^2*r^4*y^4 + q^6*r^2*y^2*y00 + r^3*y^3 + q*r^2*y^3*y00 + q^5*q00*r^4*y^4*y00 + q^4*q00*r^3*y*y00 - q^5*r^5*y^4 + q^5*r^3*y^2 + q^2*r*r00*y^2 - q^2*r^3*r00*y^4 - q^2*q00*r^3*y^4*y00 + q^4*r^6*y^3 + q^3*r^4*y^2*y00
;--------------------------------------------------------------------------

(set-logic NIA)
(set-option :produce-proofs true)

(declare-const q00 Int)
(declare-const r00 Int)
(declare-const y00 Int)

(assert 
	(exists
		((q Int) (r Int) (y Int))
		(and
			(= (+ (* (- 1) y00) y) 0)
			(= (+ (- r r00 (* q00 y00)) (* q y00)) 0)

			(or
				(not (= (+ (- (+ (- (+ (- (+ (- (+ (- (+ (- (+ (- (* (+ q 1) (+ q 1) (+ q 1) (- r y00) (- r y00) (- r y00) y00 y00 y00 y00 y00) (* (+ q 1) (+ q 1) (+ q 1) (+ q 1) (+ q 1) (- r y00) (- r y00) (- r y00) y00 y00) (* (- r y00) (- r y00) r00 y00 y00 y00) (* (+ q 1) (+ q 1) (+ q 1) (- r y00) (- r y00) (- r y00) (- r y00) y00 y00 y00)) (* (+ q 1) (+ q 1) (- r y00) (- r y00) (- r y00) (- r y00) (- r y00) y00 y00) (* (+ q 1) (+ q 1) (+ q 1) (+ q 1) (+ q 1) (- r y00) (- r y00) (- r y00) (- r y00) (- r y00) y00 y00 y00 y00) (* (+ q 1) (+ q 1) q00 (- r y00) y00 y00 y00)) (* q00 (- r y00) (- r y00) y00 y00 y00 y00) (* (+ q 1) (+ q 1) (- r y00) (- r y00) (- r y00) (- r y00) r00 y00 y00)) (* (+ q 1) (+ q 1) (+ q 1) (- r y00) (- r y00) (- r y00) r00 y00 y00 y00)) (* (+ q 1) (+ q 1) (+ q 1) (+ q 1) (+ q 1) q00 (- r y00) (- r y00) y00 y00 y00) (* (+ q 1) (+ q 1) q00 (- r y00) (- r y00) (- r y00) (- r y00) y00 y00 y00) (* (+ q 1) (+ q 1) (+ q 1) (- r y00) y00 y00 y00)) (* (+ q 1) (+ q 1) (+ q 1) (+ q 1) (+ q 1) (- r y00) (- r y00) (- r y00) (- r y00) r00 y00 y00 y00 y00)) (* (+ q 1) (+ q 1) (+ q 1) (+ q 1) (- r y00) (- r y00) (- r y00) (- r y00) (- r y00) r00 y00 y00 y00)) (* (+ q 1) (+ q 1) (+ q 1) q00 (- r y00) (- r y00) (- r y00) y00 y00 y00 y00) (* (+ q 1) (+ q 1) (+ q 1) (+ q 1) (- r y00) (- r y00) (- r y00) r00 y00)) (* (+ q 1) (+ q 1) (+ q 1) (+ q 1) (- r y00) (- r y00) (- r y00) y00 y00 y00 y00) (* (+ q 1) (+ q 1) (+ q 1) (+ q 1) q00 (- r y00) (- r y00) (- r y00) (- r y00) (- r y00) y00 y00 y00 y00) (* (+ q 1) (+ q 1) (+ q 1) (+ q 1) (- r y00) (- r y00) (- r y00) (- r y00) y00) (* (+ q 1) (+ q 1) (+ q 1) (+ q 1) (+ q 1) (+ q 1) (- r y00) (- r y00) (- r y00) (- r y00) y00 y00 y00 y00 y00) (* (+ q 1) (+ q 1) (- r y00) (- r y00) y00 y00) (* (+ q 1) (+ q 1) (+ q 1) (+ q 1) (+ q 1) (- r y00) (- r y00) r00 y00 y00)) (* (+ q 1) (+ q 1) (- r y00) (- r y00) (- r y00) (- r y00) y00 y00 y00 y00) (* (+ q 1) (+ q 1) (+ q 1) (+ q 1) (+ q 1) (+ q 1) (- r y00) (- r y00) y00 y00 y00) (* (- r y00) (- r y00) (- r y00) y00 y00 y00) (* (+ q 1) (- r y00) (- r y00) y00 y00 y00 y00) (* (+ q 1) (+ q 1) (+ q 1) (+ q 1) (+ q 1) q00 (- r y00) (- r y00) (- r y00) (- r y00) y00 y00 y00 y00 y00) (* (+ q 1) (+ q 1) (+ q 1) (+ q 1) q00 (- r y00) (- r y00) (- r y00) y00 y00)) (* (+ q 1) (+ q 1) (+ q 1) (+ q 1) (+ q 1) (- r y00) (- r y00) (- r y00) (- r y00) (- r y00) y00 y00 y00 y00)) (* (+ q 1) (+ q 1) (+ q 1) (+ q 1) (+ q 1) (- r y00) (- r y00) (- r y00) y00 y00) (* (+ q 1) (+ q 1) (- r y00) r00 y00 y00)) (* (+ q 1) (+ q 1) (- r y00) (- r y00) (- r y00) r00 y00 y00 y00 y00) (* (+ q 1) (+ q 1) q00 (- r y00) (- r y00) (- r y00) y00 y00 y00 y00 y00)) (* (+ q 1) (+ q 1) (+ q 1) (+ q 1) (- r y00) (- r y00) (- r y00) (- r y00) (- r y00) (- r y00) y00 y00 y00) (* (+ q 1) (+ q 1) (+ q 1) (- r y00) (- r y00) (- r y00) (- r y00) y00 y00 y00)) 0))
			)
		)
	)
)
(check-sat)
(get-proof)
(exit)
